6042.0 329833.0 
6099.0 324565.0 
6013.0 333765.0 
6010.0 333999.0 
5943.0 340511.0 
6002.0 334051.0 
5947.0 340248.0 
5968.0 337816.0 
6026.0 330883.0 
6038.0 330487.0 
6050.0 325516.0 
5997.0 336648.0 
6043.0 327703.0 
6193.0 324453.0 
5970.0 337447.0 
6251.0 322543.0 
5971.0 336893.0 
6199.0 323831.0 
6090.0 325238.0 
6091.0 325193.0 
5998.0 335563.0 
